p cnf 336 1332
-217 -218 0
-217 -219 0
-218 -219 0
-220 -221 0
-1 217 0
-1 220 0
-2 217 0
-2 221 0
-3 218 0
-3 220 0
-4 218 0
-4 221 0
-5 219 0
-5 220 0
-6 219 0
-6 221 0
-1 37 0
-1 7 0
-2 38 0
-2 8 0
-3 39 0
-3 9 0
-4 40 0
-4 10 0
-5 41 0
-5 11 0
-6 42 0
-6 12 0
-222 -223 0
-222 -224 0
-223 -224 0
-225 -226 0
-7 222 0
-7 225 0
-8 222 0
-8 226 0
-9 223 0
-9 225 0
-10 223 0
-10 226 0
-11 224 0
-11 225 0
-12 224 0
-12 226 0
-7 1 13 0
-7 1 43 0
-7 13 43 0
-8 2 14 0
-8 2 44 0
-8 14 44 0
-9 3 15 0
-9 3 45 0
-9 15 45 0
-10 4 16 0
-10 4 46 0
-10 16 46 0
-11 5 17 0
-11 5 47 0
-11 17 47 0
-12 6 18 0
-12 6 48 0
-12 18 48 0
-7 -1 -13 -43 0
-8 -2 -14 -44 0
-9 -3 -15 -45 0
-10 -4 -16 -46 0
-11 -5 -17 -47 0
-12 -6 -18 -48 0
-227 -228 0
-227 -229 0
-228 -229 0
-230 -231 0
-13 227 0
-13 230 0
-14 227 0
-14 231 0
-15 228 0
-15 230 0
-16 228 0
-16 231 0
-17 229 0
-17 230 0
-18 229 0
-18 231 0
-13 7 19 0
-13 7 49 0
-13 19 49 0
-14 8 20 0
-14 8 50 0
-14 20 50 0
-15 9 21 0
-15 9 51 0
-15 21 51 0
-16 10 22 0
-16 10 52 0
-16 22 52 0
-17 11 23 0
-17 11 53 0
-17 23 53 0
-18 12 24 0
-18 12 54 0
-18 24 54 0
-13 -7 -19 -49 0
-14 -8 -20 -50 0
-15 -9 -21 -51 0
-16 -10 -22 -52 0
-17 -11 -23 -53 0
-18 -12 -24 -54 0
-232 -233 0
-232 -234 0
-233 -234 0
-235 -236 0
-19 232 0
-19 235 0
-20 232 0
-20 236 0
-21 233 0
-21 235 0
-22 233 0
-22 236 0
-23 234 0
-23 235 0
-24 234 0
-24 236 0
-19 13 25 0
-19 13 55 0
-19 25 55 0
-20 14 26 0
-20 14 56 0
-20 26 56 0
-21 15 27 0
-21 15 57 0
-21 27 57 0
-22 16 28 0
-22 16 58 0
-22 28 58 0
-23 17 29 0
-23 17 59 0
-23 29 59 0
-24 18 30 0
-24 18 60 0
-24 30 60 0
-19 -13 -25 -55 0
-20 -14 -26 -56 0
-21 -15 -27 -57 0
-22 -16 -28 -58 0
-23 -17 -29 -59 0
-24 -18 -30 -60 0
27 0
-25 0
-26 0
-28 0
-29 0
-30 0
21 33 63 0
-21 -33 0
-21 -63 0
-33 -63 0
-237 -238 0
-237 -239 0
-238 -239 0
-240 -241 0
-31 237 0
-31 240 0
-32 237 0
-32 241 0
-33 238 0
-33 240 0
-34 238 0
-34 241 0
-35 239 0
-35 240 0
-36 239 0
-36 241 0
-31 67 0
-31 25 0
-32 68 0
-32 26 0
-33 69 0
-33 27 0
-34 70 0
-34 28 0
-35 71 0
-35 29 0
-36 72 0
-36 30 0
38 0
-37 0
-39 0
-40 0
-41 0
-42 0
74 44 2 0
-74 -44 0
-74 -2 0
-44 -2 0
48 0
-43 0
-44 0
-45 0
-46 0
-47 0
84 54 12 42 0
-84 -54 0
-84 -12 0
-84 -42 0
-54 -12 0
-54 -42 0
-12 -42 0
-242 -243 0
-242 -244 0
-243 -244 0
-245 -246 0
-49 242 0
-49 245 0
-50 242 0
-50 246 0
-51 243 0
-51 245 0
-52 243 0
-52 246 0
-53 244 0
-53 245 0
-54 244 0
-54 246 0
-49 85 55 13 0
-49 85 55 43 0
-49 85 13 43 0
-49 55 13 43 0
-50 86 56 14 0
-50 86 56 44 0
-50 86 14 44 0
-50 56 14 44 0
-51 87 57 15 0
-51 87 57 45 0
-51 87 15 45 0
-51 57 15 45 0
-52 88 58 16 0
-52 88 58 46 0
-52 88 16 46 0
-52 58 16 46 0
-53 89 59 17 0
-53 89 59 47 0
-53 89 17 47 0
-53 59 17 47 0
-54 90 60 18 0
-54 90 60 48 0
-54 90 18 48 0
-54 60 18 48 0
-49 -85 -55 -13 0
-49 -85 -55 -43 0
-49 -85 -13 -43 0
-49 -55 -13 -43 0
-50 -86 -56 -14 0
-50 -86 -56 -44 0
-50 -86 -14 -44 0
-50 -56 -14 -44 0
-51 -87 -57 -15 0
-51 -87 -57 -45 0
-51 -87 -15 -45 0
-51 -57 -15 -45 0
-52 -88 -58 -16 0
-52 -88 -58 -46 0
-52 -88 -16 -46 0
-52 -58 -16 -46 0
-53 -89 -59 -17 0
-53 -89 -59 -47 0
-53 -89 -17 -47 0
-53 -59 -17 -47 0
-54 -90 -60 -18 0
-54 -90 -60 -48 0
-54 -90 -18 -48 0
-54 -60 -18 -48 0
-247 -248 0
-247 -249 0
-248 -249 0
-250 -251 0
-55 247 0
-55 250 0
-56 247 0
-56 251 0
-57 248 0
-57 250 0
-58 248 0
-58 251 0
-59 249 0
-59 250 0
-60 249 0
-60 251 0
-55 91 61 19 0
-55 91 61 49 0
-55 91 19 49 0
-55 61 19 49 0
-56 92 62 20 0
-56 92 62 50 0
-56 92 20 50 0
-56 62 20 50 0
-57 93 63 21 0
-57 93 63 51 0
-57 93 21 51 0
-57 63 21 51 0
-58 94 64 22 0
-58 94 64 52 0
-58 94 22 52 0
-58 64 22 52 0
-59 95 65 23 0
-59 95 65 53 0
-59 95 23 53 0
-59 65 23 53 0
-60 96 66 24 0
-60 96 66 54 0
-60 96 24 54 0
-60 66 24 54 0
-55 -91 -61 -19 0
-55 -91 -61 -49 0
-55 -91 -19 -49 0
-55 -61 -19 -49 0
-56 -92 -62 -20 0
-56 -92 -62 -50 0
-56 -92 -20 -50 0
-56 -62 -20 -50 0
-57 -93 -63 -21 0
-57 -93 -63 -51 0
-57 -93 -21 -51 0
-57 -63 -21 -51 0
-58 -94 -64 -22 0
-58 -94 -64 -52 0
-58 -94 -22 -52 0
-58 -64 -22 -52 0
-59 -95 -65 -23 0
-59 -95 -65 -53 0
-59 -95 -23 -53 0
-59 -65 -23 -53 0
-60 -96 -66 -24 0
-60 -96 -66 -54 0
-60 -96 -24 -54 0
-60 -66 -24 -54 0
62 0
-61 0
-63 0
-64 0
-65 0
-66 0
98 68 26 56 0
-98 -68 0
-98 -26 0
-98 -56 0
-68 -26 0
-68 -56 0
-26 -56 0
69 0
-67 0
-68 0
-70 0
-71 0
-72 0
105 63 33 0
-105 -63 0
-105 -33 0
-63 -33 0
77 0
-73 0
-74 0
-75 0
-76 0
-78 0
113 83 41 0
-113 -83 0
-113 -41 0
-83 -41 0
-252 -253 0
-252 -254 0
-253 -254 0
-255 -256 0
-79 252 0
-79 255 0
-80 252 0
-80 256 0
-81 253 0
-81 255 0
-82 253 0
-82 256 0
-83 254 0
-83 255 0
-84 254 0
-84 256 0
-79 115 85 43 0
-79 115 85 73 0
-79 115 43 73 0
-79 85 43 73 0
-80 116 86 44 0
-80 116 86 74 0
-80 116 44 74 0
-80 86 44 74 0
-81 117 87 45 0
-81 117 87 75 0
-81 117 45 75 0
-81 87 45 75 0
-82 118 88 46 0
-82 118 88 76 0
-82 118 46 76 0
-82 88 46 76 0
-83 119 89 47 0
-83 119 89 77 0
-83 119 47 77 0
-83 89 47 77 0
-84 120 90 48 0
-84 120 90 78 0
-84 120 48 78 0
-84 90 48 78 0
-79 -115 -85 -43 0
-79 -115 -85 -73 0
-79 -115 -43 -73 0
-79 -85 -43 -73 0
-80 -116 -86 -44 0
-80 -116 -86 -74 0
-80 -116 -44 -74 0
-80 -86 -44 -74 0
-81 -117 -87 -45 0
-81 -117 -87 -75 0
-81 -117 -45 -75 0
-81 -87 -45 -75 0
-82 -118 -88 -46 0
-82 -118 -88 -76 0
-82 -118 -46 -76 0
-82 -88 -46 -76 0
-83 -119 -89 -47 0
-83 -119 -89 -77 0
-83 -119 -47 -77 0
-83 -89 -47 -77 0
-84 -120 -90 -48 0
-84 -120 -90 -78 0
-84 -120 -48 -78 0
-84 -90 -48 -78 0
-257 -258 0
-257 -259 0
-258 -259 0
-260 -261 0
-85 257 0
-85 260 0
-86 257 0
-86 261 0
-87 258 0
-87 260 0
-88 258 0
-88 261 0
-89 259 0
-89 260 0
-90 259 0
-90 261 0
-85 121 91 49 0
-85 121 91 79 0
-85 121 49 79 0
-85 91 49 79 0
-86 122 92 50 0
-86 122 92 80 0
-86 122 50 80 0
-86 92 50 80 0
-87 123 93 51 0
-87 123 93 81 0
-87 123 51 81 0
-87 93 51 81 0
-88 124 94 52 0
-88 124 94 82 0
-88 124 52 82 0
-88 94 52 82 0
-89 125 95 53 0
-89 125 95 83 0
-89 125 53 83 0
-89 95 53 83 0
-90 126 96 54 0
-90 126 96 84 0
-90 126 54 84 0
-90 96 54 84 0
-85 -121 -91 -49 0
-85 -121 -91 -79 0
-85 -121 -49 -79 0
-85 -91 -49 -79 0
-86 -122 -92 -50 0
-86 -122 -92 -80 0
-86 -122 -50 -80 0
-86 -92 -50 -80 0
-87 -123 -93 -51 0
-87 -123 -93 -81 0
-87 -123 -51 -81 0
-87 -93 -51 -81 0
-88 -124 -94 -52 0
-88 -124 -94 -82 0
-88 -124 -52 -82 0
-88 -94 -52 -82 0
-89 -125 -95 -53 0
-89 -125 -95 -83 0
-89 -125 -53 -83 0
-89 -95 -53 -83 0
-90 -126 -96 -54 0
-90 -126 -96 -84 0
-90 -126 -54 -84 0
-90 -96 -54 -84 0
-262 -263 0
-262 -264 0
-263 -264 0
-265 -266 0
-91 262 0
-91 265 0
-92 262 0
-92 266 0
-93 263 0
-93 265 0
-94 263 0
-94 266 0
-95 264 0
-95 265 0
-96 264 0
-96 266 0
-91 127 97 55 0
-91 127 97 85 0
-91 127 55 85 0
-91 97 55 85 0
-92 128 98 56 0
-92 128 98 86 0
-92 128 56 86 0
-92 98 56 86 0
-93 129 99 57 0
-93 129 99 87 0
-93 129 57 87 0
-93 99 57 87 0
-94 130 100 58 0
-94 130 100 88 0
-94 130 58 88 0
-94 100 58 88 0
-95 131 101 59 0
-95 131 101 89 0
-95 131 59 89 0
-95 101 59 89 0
-96 132 102 60 0
-96 132 102 90 0
-96 132 60 90 0
-96 102 60 90 0
-91 -127 -97 -55 0
-91 -127 -97 -85 0
-91 -127 -55 -85 0
-91 -97 -55 -85 0
-92 -128 -98 -56 0
-92 -128 -98 -86 0
-92 -128 -56 -86 0
-92 -98 -56 -86 0
-93 -129 -99 -57 0
-93 -129 -99 -87 0
-93 -129 -57 -87 0
-93 -99 -57 -87 0
-94 -130 -100 -58 0
-94 -130 -100 -88 0
-94 -130 -58 -88 0
-94 -100 -58 -88 0
-95 -131 -101 -59 0
-95 -131 -101 -89 0
-95 -131 -59 -89 0
-95 -101 -59 -89 0
-96 -132 -102 -60 0
-96 -132 -102 -90 0
-96 -132 -60 -90 0
-96 -102 -60 -90 0
-267 -268 0
-267 -269 0
-268 -269 0
-270 -271 0
-97 267 0
-97 270 0
-98 267 0
-98 271 0
-99 268 0
-99 270 0
-100 268 0
-100 271 0
-101 269 0
-101 270 0
-102 269 0
-102 271 0
-97 133 103 61 0
-97 133 103 91 0
-97 133 61 91 0
-97 103 61 91 0
-98 134 104 62 0
-98 134 104 92 0
-98 134 62 92 0
-98 104 62 92 0
-99 135 105 63 0
-99 135 105 93 0
-99 135 63 93 0
-99 105 63 93 0
-100 136 106 64 0
-100 136 106 94 0
-100 136 64 94 0
-100 106 64 94 0
-101 137 107 65 0
-101 137 107 95 0
-101 137 65 95 0
-101 107 65 95 0
-102 138 108 66 0
-102 138 108 96 0
-102 138 66 96 0
-102 108 66 96 0
-97 -133 -103 -61 0
-97 -133 -103 -91 0
-97 -133 -61 -91 0
-97 -103 -61 -91 0
-98 -134 -104 -62 0
-98 -134 -104 -92 0
-98 -134 -62 -92 0
-98 -104 -62 -92 0
-99 -135 -105 -63 0
-99 -135 -105 -93 0
-99 -135 -63 -93 0
-99 -105 -63 -93 0
-100 -136 -106 -64 0
-100 -136 -106 -94 0
-100 -136 -64 -94 0
-100 -106 -64 -94 0
-101 -137 -107 -65 0
-101 -137 -107 -95 0
-101 -137 -65 -95 0
-101 -107 -65 -95 0
-102 -138 -108 -66 0
-102 -138 -108 -96 0
-102 -138 -66 -96 0
-102 -108 -66 -96 0
108 0
-103 0
-104 0
-105 0
-106 0
-107 0
144 102 72 0
-144 -102 0
-144 -72 0
-102 -72 0
112 0
-109 0
-110 0
-111 0
-113 0
-114 0
148 118 76 0
-148 -118 0
-148 -76 0
-118 -76 0
-272 -273 0
-272 -274 0
-273 -274 0
-275 -276 0
-115 272 0
-115 275 0
-116 272 0
-116 276 0
-117 273 0
-117 275 0
-118 273 0
-118 276 0
-119 274 0
-119 275 0
-120 274 0
-120 276 0
-115 151 121 79 0
-115 151 121 109 0
-115 151 79 109 0
-115 121 79 109 0
-116 152 122 80 0
-116 152 122 110 0
-116 152 80 110 0
-116 122 80 110 0
-117 153 123 81 0
-117 153 123 111 0
-117 153 81 111 0
-117 123 81 111 0
-118 154 124 82 0
-118 154 124 112 0
-118 154 82 112 0
-118 124 82 112 0
-119 155 125 83 0
-119 155 125 113 0
-119 155 83 113 0
-119 125 83 113 0
-120 156 126 84 0
-120 156 126 114 0
-120 156 84 114 0
-120 126 84 114 0
-115 -151 -121 -79 0
-115 -151 -121 -109 0
-115 -151 -79 -109 0
-115 -121 -79 -109 0
-116 -152 -122 -80 0
-116 -152 -122 -110 0
-116 -152 -80 -110 0
-116 -122 -80 -110 0
-117 -153 -123 -81 0
-117 -153 -123 -111 0
-117 -153 -81 -111 0
-117 -123 -81 -111 0
-118 -154 -124 -82 0
-118 -154 -124 -112 0
-118 -154 -82 -112 0
-118 -124 -82 -112 0
-119 -155 -125 -83 0
-119 -155 -125 -113 0
-119 -155 -83 -113 0
-119 -125 -83 -113 0
-120 -156 -126 -84 0
-120 -156 -126 -114 0
-120 -156 -84 -114 0
-120 -126 -84 -114 0
-277 -278 0
-277 -279 0
-278 -279 0
-280 -281 0
-121 277 0
-121 280 0
-122 277 0
-122 281 0
-123 278 0
-123 280 0
-124 278 0
-124 281 0
-125 279 0
-125 280 0
-126 279 0
-126 281 0
-121 157 127 85 0
-121 157 127 115 0
-121 157 85 115 0
-121 127 85 115 0
-122 158 128 86 0
-122 158 128 116 0
-122 158 86 116 0
-122 128 86 116 0
-123 159 129 87 0
-123 159 129 117 0
-123 159 87 117 0
-123 129 87 117 0
-124 160 130 88 0
-124 160 130 118 0
-124 160 88 118 0
-124 130 88 118 0
-125 161 131 89 0
-125 161 131 119 0
-125 161 89 119 0
-125 131 89 119 0
-126 162 132 90 0
-126 162 132 120 0
-126 162 90 120 0
-126 132 90 120 0
-121 -157 -127 -85 0
-121 -157 -127 -115 0
-121 -157 -85 -115 0
-121 -127 -85 -115 0
-122 -158 -128 -86 0
-122 -158 -128 -116 0
-122 -158 -86 -116 0
-122 -128 -86 -116 0
-123 -159 -129 -87 0
-123 -159 -129 -117 0
-123 -159 -87 -117 0
-123 -129 -87 -117 0
-124 -160 -130 -88 0
-124 -160 -130 -118 0
-124 -160 -88 -118 0
-124 -130 -88 -118 0
-125 -161 -131 -89 0
-125 -161 -131 -119 0
-125 -161 -89 -119 0
-125 -131 -89 -119 0
-126 -162 -132 -90 0
-126 -162 -132 -120 0
-126 -162 -90 -120 0
-126 -132 -90 -120 0
131 0
-127 0
-128 0
-129 0
-130 0
-132 0
167 137 95 125 0
-167 -137 0
-167 -95 0
-167 -125 0
-137 -95 0
-137 -125 0
-95 -125 0
-282 -283 0
-282 -284 0
-283 -284 0
-285 -286 0
-133 282 0
-133 285 0
-134 282 0
-134 286 0
-135 283 0
-135 285 0
-136 283 0
-136 286 0
-137 284 0
-137 285 0
-138 284 0
-138 286 0
-133 169 139 97 0
-133 169 139 127 0
-133 169 97 127 0
-133 139 97 127 0
-134 170 140 98 0
-134 170 140 128 0
-134 170 98 128 0
-134 140 98 128 0
-135 171 141 99 0
-135 171 141 129 0
-135 171 99 129 0
-135 141 99 129 0
-136 172 142 100 0
-136 172 142 130 0
-136 172 100 130 0
-136 142 100 130 0
-137 173 143 101 0
-137 173 143 131 0
-137 173 101 131 0
-137 143 101 131 0
-138 174 144 102 0
-138 174 144 132 0
-138 174 102 132 0
-138 144 102 132 0
-133 -169 -139 -97 0
-133 -169 -139 -127 0
-133 -169 -97 -127 0
-133 -139 -97 -127 0
-134 -170 -140 -98 0
-134 -170 -140 -128 0
-134 -170 -98 -128 0
-134 -140 -98 -128 0
-135 -171 -141 -99 0
-135 -171 -141 -129 0
-135 -171 -99 -129 0
-135 -141 -99 -129 0
-136 -172 -142 -100 0
-136 -172 -142 -130 0
-136 -172 -100 -130 0
-136 -142 -100 -130 0
-137 -173 -143 -101 0
-137 -173 -143 -131 0
-137 -173 -101 -131 0
-137 -143 -101 -131 0
-138 -174 -144 -102 0
-138 -174 -144 -132 0
-138 -174 -102 -132 0
-138 -144 -102 -132 0
139 0
-140 0
-141 0
-142 0
-143 0
-144 0
175 133 103 0
-175 -133 0
-175 -103 0
-133 -103 0
-287 -288 0
-287 -289 0
-288 -289 0
-290 -291 0
-145 287 0
-145 290 0
-146 287 0
-146 291 0
-147 288 0
-147 290 0
-148 288 0
-148 291 0
-149 289 0
-149 290 0
-150 289 0
-150 291 0
-145 181 151 0
-145 181 109 0
-145 151 109 0
-146 182 152 0
-146 182 110 0
-146 152 110 0
-147 183 153 0
-147 183 111 0
-147 153 111 0
-148 184 154 0
-148 184 112 0
-148 154 112 0
-149 185 155 0
-149 185 113 0
-149 155 113 0
-150 186 156 0
-150 186 114 0
-150 156 114 0
-145 -181 -151 -109 0
-146 -182 -152 -110 0
-147 -183 -153 -111 0
-148 -184 -154 -112 0
-149 -185 -155 -113 0
-150 -186 -156 -114 0
151 0
-152 0
-153 0
-154 0
-155 0
-156 0
187 157 115 145 0
-187 -157 0
-187 -115 0
-187 -145 0
-157 -115 0
-157 -145 0
-115 -145 0
-292 -293 0
-292 -294 0
-293 -294 0
-295 -296 0
-157 292 0
-157 295 0
-158 292 0
-158 296 0
-159 293 0
-159 295 0
-160 293 0
-160 296 0
-161 294 0
-161 295 0
-162 294 0
-162 296 0
-157 193 163 121 0
-157 193 163 151 0
-157 193 121 151 0
-157 163 121 151 0
-158 194 164 122 0
-158 194 164 152 0
-158 194 122 152 0
-158 164 122 152 0
-159 195 165 123 0
-159 195 165 153 0
-159 195 123 153 0
-159 165 123 153 0
-160 196 166 124 0
-160 196 166 154 0
-160 196 124 154 0
-160 166 124 154 0
-161 197 167 125 0
-161 197 167 155 0
-161 197 125 155 0
-161 167 125 155 0
-162 198 168 126 0
-162 198 168 156 0
-162 198 126 156 0
-162 168 126 156 0
-157 -193 -163 -121 0
-157 -193 -163 -151 0
-157 -193 -121 -151 0
-157 -163 -121 -151 0
-158 -194 -164 -122 0
-158 -194 -164 -152 0
-158 -194 -122 -152 0
-158 -164 -122 -152 0
-159 -195 -165 -123 0
-159 -195 -165 -153 0
-159 -195 -123 -153 0
-159 -165 -123 -153 0
-160 -196 -166 -124 0
-160 -196 -166 -154 0
-160 -196 -124 -154 0
-160 -166 -124 -154 0
-161 -197 -167 -125 0
-161 -197 -167 -155 0
-161 -197 -125 -155 0
-161 -167 -125 -155 0
-162 -198 -168 -126 0
-162 -198 -168 -156 0
-162 -198 -126 -156 0
-162 -168 -126 -156 0
-297 -298 0
-297 -299 0
-298 -299 0
-300 -301 0
-163 297 0
-163 300 0
-164 297 0
-164 301 0
-165 298 0
-165 300 0
-166 298 0
-166 301 0
-167 299 0
-167 300 0
-168 299 0
-168 301 0
-163 199 169 127 0
-163 199 169 157 0
-163 199 127 157 0
-163 169 127 157 0
-164 200 170 128 0
-164 200 170 158 0
-164 200 128 158 0
-164 170 128 158 0
-165 201 171 129 0
-165 201 171 159 0
-165 201 129 159 0
-165 171 129 159 0
-166 202 172 130 0
-166 202 172 160 0
-166 202 130 160 0
-166 172 130 160 0
-167 203 173 131 0
-167 203 173 161 0
-167 203 131 161 0
-167 173 131 161 0
-168 204 174 132 0
-168 204 174 162 0
-168 204 132 162 0
-168 174 132 162 0
-163 -199 -169 -127 0
-163 -199 -169 -157 0
-163 -199 -127 -157 0
-163 -169 -127 -157 0
-164 -200 -170 -128 0
-164 -200 -170 -158 0
-164 -200 -128 -158 0
-164 -170 -128 -158 0
-165 -201 -171 -129 0
-165 -201 -171 -159 0
-165 -201 -129 -159 0
-165 -171 -129 -159 0
-166 -202 -172 -130 0
-166 -202 -172 -160 0
-166 -202 -130 -160 0
-166 -172 -130 -160 0
-167 -203 -173 -131 0
-167 -203 -173 -161 0
-167 -203 -131 -161 0
-167 -173 -131 -161 0
-168 -204 -174 -132 0
-168 -204 -174 -162 0
-168 -204 -132 -162 0
-168 -174 -132 -162 0
-302 -303 0
-302 -304 0
-303 -304 0
-305 -306 0
-169 302 0
-169 305 0
-170 302 0
-170 306 0
-171 303 0
-171 305 0
-172 303 0
-172 306 0
-173 304 0
-173 305 0
-174 304 0
-174 306 0
-169 205 175 133 0
-169 205 175 163 0
-169 205 133 163 0
-169 175 133 163 0
-170 206 176 134 0
-170 206 176 164 0
-170 206 134 164 0
-170 176 134 164 0
-171 207 177 135 0
-171 207 177 165 0
-171 207 135 165 0
-171 177 135 165 0
-172 208 178 136 0
-172 208 178 166 0
-172 208 136 166 0
-172 178 136 166 0
-173 209 179 137 0
-173 209 179 167 0
-173 209 137 167 0
-173 179 137 167 0
-174 210 180 138 0
-174 210 180 168 0
-174 210 138 168 0
-174 180 138 168 0
-169 -205 -175 -133 0
-169 -205 -175 -163 0
-169 -205 -133 -163 0
-169 -175 -133 -163 0
-170 -206 -176 -134 0
-170 -206 -176 -164 0
-170 -206 -134 -164 0
-170 -176 -134 -164 0
-171 -207 -177 -135 0
-171 -207 -177 -165 0
-171 -207 -135 -165 0
-171 -177 -135 -165 0
-172 -208 -178 -136 0
-172 -208 -178 -166 0
-172 -208 -136 -166 0
-172 -178 -136 -166 0
-173 -209 -179 -137 0
-173 -209 -179 -167 0
-173 -209 -137 -167 0
-173 -179 -137 -167 0
-174 -210 -180 -138 0
-174 -210 -180 -168 0
-174 -210 -138 -168 0
-174 -180 -138 -168 0
178 0
-175 0
-176 0
-177 0
-179 0
-180 0
214 172 142 0
-214 -172 0
-214 -142 0
-172 -142 0
-307 -308 0
-307 -309 0
-308 -309 0
-310 -311 0
-181 307 0
-181 310 0
-182 307 0
-182 311 0
-183 308 0
-183 310 0
-184 308 0
-184 311 0
-185 309 0
-185 310 0
-186 309 0
-186 311 0
-181 145 0
-181 187 0
-182 146 0
-182 188 0
-183 147 0
-183 189 0
-184 148 0
-184 190 0
-185 149 0
-185 191 0
-186 150 0
-186 192 0
-312 -313 0
-312 -314 0
-313 -314 0
-315 -316 0
-187 312 0
-187 315 0
-188 312 0
-188 316 0
-189 313 0
-189 315 0
-190 313 0
-190 316 0
-191 314 0
-191 315 0
-192 314 0
-192 316 0
-187 151 193 0
-187 151 181 0
-187 193 181 0
-188 152 194 0
-188 152 182 0
-188 194 182 0
-189 153 195 0
-189 153 183 0
-189 195 183 0
-190 154 196 0
-190 154 184 0
-190 196 184 0
-191 155 197 0
-191 155 185 0
-191 197 185 0
-192 156 198 0
-192 156 186 0
-192 198 186 0
-187 -151 -193 -181 0
-188 -152 -194 -182 0
-189 -153 -195 -183 0
-190 -154 -196 -184 0
-191 -155 -197 -185 0
-192 -156 -198 -186 0
-317 -318 0
-317 -319 0
-318 -319 0
-320 -321 0
-193 317 0
-193 320 0
-194 317 0
-194 321 0
-195 318 0
-195 320 0
-196 318 0
-196 321 0
-197 319 0
-197 320 0
-198 319 0
-198 321 0
-193 157 199 0
-193 157 187 0
-193 199 187 0
-194 158 200 0
-194 158 188 0
-194 200 188 0
-195 159 201 0
-195 159 189 0
-195 201 189 0
-196 160 202 0
-196 160 190 0
-196 202 190 0
-197 161 203 0
-197 161 191 0
-197 203 191 0
-198 162 204 0
-198 162 192 0
-198 204 192 0
-193 -157 -199 -187 0
-194 -158 -200 -188 0
-195 -159 -201 -189 0
-196 -160 -202 -190 0
-197 -161 -203 -191 0
-198 -162 -204 -192 0
-322 -323 0
-322 -324 0
-323 -324 0
-325 -326 0
-199 322 0
-199 325 0
-200 322 0
-200 326 0
-201 323 0
-201 325 0
-202 323 0
-202 326 0
-203 324 0
-203 325 0
-204 324 0
-204 326 0
-199 163 205 0
-199 163 193 0
-199 205 193 0
-200 164 206 0
-200 164 194 0
-200 206 194 0
-201 165 207 0
-201 165 195 0
-201 207 195 0
-202 166 208 0
-202 166 196 0
-202 208 196 0
-203 167 209 0
-203 167 197 0
-203 209 197 0
-204 168 210 0
-204 168 198 0
-204 210 198 0
-199 -163 -205 -193 0
-200 -164 -206 -194 0
-201 -165 -207 -195 0
-202 -166 -208 -196 0
-203 -167 -209 -197 0
-204 -168 -210 -198 0
-327 -328 0
-327 -329 0
-328 -329 0
-330 -331 0
-205 327 0
-205 330 0
-206 327 0
-206 331 0
-207 328 0
-207 330 0
-208 328 0
-208 331 0
-209 329 0
-209 330 0
-210 329 0
-210 331 0
-205 169 211 0
-205 169 199 0
-205 211 199 0
-206 170 212 0
-206 170 200 0
-206 212 200 0
-207 171 213 0
-207 171 201 0
-207 213 201 0
-208 172 214 0
-208 172 202 0
-208 214 202 0
-209 173 215 0
-209 173 203 0
-209 215 203 0
-210 174 216 0
-210 174 204 0
-210 216 204 0
-205 -169 -211 -199 0
-206 -170 -212 -200 0
-207 -171 -213 -201 0
-208 -172 -214 -202 0
-209 -173 -215 -203 0
-210 -174 -216 -204 0
-332 -333 0
-332 -334 0
-333 -334 0
-335 -336 0
-211 332 0
-211 335 0
-212 332 0
-212 336 0
-213 333 0
-213 335 0
-214 333 0
-214 336 0
-215 334 0
-215 335 0
-216 334 0
-216 336 0
-211 175 0
-211 205 0
-212 176 0
-212 206 0
-213 177 0
-213 207 0
-214 178 0
-214 208 0
-215 179 0
-215 209 0
-216 180 0
-216 210 0